2000	50	0,6	0,15	4,42140820	231
2000	50	0,6	0,15	3,92753540	251
2000	50	0,6	0,15	4,49599580	231
2000	50	0,6	0,15	5,17257460	231
2000	50	0,6	0,15	5,07414830	231
2000	50	0,6	0,15	6,29634790	231
2000	50	0,6	0,15	5,46562070	231
2000	50	0,6	0,15	5,58955630	231
2000	50	0,6	0,15	4,98927240	231
2000	50	0,6	0,15	5,85295970	231
